
Value of objective function: 119.00000000

Actual values of the variables:
x_r1_p1_2                       1
x_r1_p1_3                       0
x_r1_p1_4                       0
x_r1_p1_5                       0
x_r2_p1_2                       1
x_r2_p1_3                       0
x_r2_p1_4                       0
x_r2_p1_5                       0
x_r3_p1_2                       1
x_r3_p1_3                       0
x_r3_p1_4                       0
x_r3_p1_5                       0
x_r3_p1_6                       0
x_r3_p1_7                       0
x_r3_p1_8                       0
x_r3_p1_9                       0
x_r3_p1_10                      0
x_r4_p1_2                       0
x_r4_p1_3                       1
x_r4_p1_4                       0
x_r4_p1_5                       0
x_r4_p1_6                       0
x_r4_p1_7                       0
x_r4_p1_8                       0
x_r4_p1_9                       0
x_r4_p1_10                      0
x_r4_p1_11                      0
x_r4_p1_12                      0
x_r4_p1_13                      0
x_r4_p1_14                      0
x_r4_p1_15                      0
x_r1_p2_2                       1
x_r1_p2_3                       0
x_r1_p2_4                       0
x_r1_p2_5                       0
x_r1_p2_6                       0
x_r1_p2_7                       0
x_r1_p2_8                       0
x_r2_p2_2                       1
x_r2_p2_3                       0
x_r2_p2_4                       0
x_r2_p2_5                       0
x_r2_p2_6                       0
x_r2_p2_7                       0
x_r2_p2_8                       0
x_r2_p2_9                       0
x_r2_p2_10                      0
x_r3_p2_2                       0
x_r3_p2_3                       0
x_r3_p2_4                       1
x_r3_p2_5                       0
x_r3_p2_6                       0
x_r3_p2_7                       0
x_r3_p2_8                       0
x_r3_p2_9                       0
x_r3_p2_10                      0
x_r3_p2_11                      0
x_r3_p2_12                      0
x_r3_p2_13                      0
x_r3_p2_14                      0
x_r3_p2_15                      0
x_r3_p2_16                      0
x_r3_p2_17                      0
x_r3_p2_18                      0
x_r3_p2_19                      0
x_r3_p2_20                      0
x_r4_p2_2                       0
x_r4_p2_3                       0
x_r4_p2_4                       0
x_r4_p2_5                       1
x_r4_p2_6                       0
x_r4_p2_7                       0
x_r4_p2_8                       0
x_r4_p2_9                       0
x_r4_p2_10                      0
x_r4_p2_11                      0
x_r4_p2_12                      0
x_r4_p2_13                      0
x_r4_p2_14                      0
x_r4_p2_15                      0
x_r4_p2_16                      0
x_r4_p2_17                      0
x_r4_p2_18                      0
x_r4_p2_19                      0
x_r4_p2_20                      0
x_r4_p2_21                      0
x_r4_p2_22                      0
x_r4_p2_23                      0
x_r4_p2_24                      0
x_r4_p2_25                      0
x_r1_p3_2                       1
x_r1_p3_3                       0
x_r1_p3_4                       0
x_r1_p3_5                       0
x_r1_p3_6                       0
x_r2_p3_2                       1
x_r2_p3_3                       0
x_r2_p3_4                       0
x_r2_p3_5                       0
x_r2_p3_6                       0
x_r2_p3_7                       0
x_r2_p3_8                       0
x_r2_p3_9                       0
x_r2_p3_10                      0
x_r3_p3_2                       0
x_r3_p3_3                       1
x_r3_p3_4                       0
x_r3_p3_5                       0
x_r3_p3_6                       0
x_r3_p3_7                       0
x_r3_p3_8                       0
x_r3_p3_9                       0
x_r3_p3_10                      0
x_r3_p3_11                      0
x_r3_p3_12                      0
x_r3_p3_13                      0
x_r3_p3_14                      0
x_r3_p3_15                      0
x_r4_p3_2                       0
x_r4_p3_3                       0
x_r4_p3_4                       0
x_r4_p3_5                       1
x_r4_p3_6                       0
x_r4_p3_7                       0
x_r4_p3_8                       0
x_r4_p3_9                       0
x_r4_p3_10                      0
x_r4_p3_11                      0
x_r4_p3_12                      0
x_r4_p3_13                      0
x_r4_p3_14                      0
x_r4_p3_15                      0
x_r4_p3_16                      0
x_r4_p3_17                      0
x_r4_p3_18                      0
x_r4_p3_19                      0
x_r4_p3_20                      0
x_r1_p4_2                       0
x_r1_p4_3                       0
x_r2_p4_2                       1
x_r2_p4_3                       0
x_r2_p4_4                       0
x_r2_p4_5                       0
x_r3_p4_2                       0
x_r3_p4_3                       1
x_r3_p4_4                       0
x_r3_p4_5                       0
x_r3_p4_6                       0
x_r3_p4_7                       0
x_r3_p4_8                       0
x_r3_p4_9                       0
x_r3_p4_10                      0
x_r3_p4_11                      0
x_r3_p4_12                      0
x_r3_p4_13                      0
x_r3_p4_14                      0
x_r3_p4_15                      0
x_r4_p4_2                       0
x_r4_p4_3                       1
x_r4_p4_4                       0
x_r4_p4_5                       0
x_r4_p4_6                       0
x_r4_p4_7                       0
x_r4_p4_8                       0
x_r4_p4_9                       0
x_r4_p4_10                      0
x_r4_p4_11                      0
x_r4_p4_12                      0
x_r4_p4_13                      0
x_r4_p4_14                      0
x_r4_p4_15                      0
x_r1_p1_1                       0
x_r2_p1_1                       0
x_r3_p1_1                       0
x_r4_p1_1                       0
x_r1_p2_1                       0
x_r2_p2_1                       0
x_r3_p2_1                       0
x_r4_p2_1                       0
x_r1_p3_1                       0
x_r2_p3_1                       0
x_r3_p3_1                       0
x_r4_p3_1                       0
x_r1_p4_1                       1
x_r2_p4_1                       0
x_r3_p4_1                       0
x_r4_p4_1                       0
